c colouring generated by benchmark framework
p edge 47 236
v 1 4
v 2 3
v 3 1
v 4 3
v 5 0
v 6 0
v 7 5
v 8 2
v 9 2
v 10 0
v 11 3
v 12 4
v 13 3
v 14 1
v 15 1
v 16 4
v 17 4
v 18 5
v 19 4
v 20 5
v 21 4
v 22 1
v 23 2
v 24 0
v 25 3
v 26 1
v 27 1
v 28 0
v 29 0
v 30 0
v 31 2
v 32 2
v 33 2
v 34 1
v 35 0
v 36 3
v 37 1
v 38 5
v 39 0
v 40 0
v 41 0
v 42 1
v 43 1
v 44 5
v 45 1
v 46 0
v 47 4
